% Logging successfully configured
%%%mzn-stat: initTime=0.043286614
%%%mzn-stat: objective=430
%%%mzn-stat: nodes=41858
%%%mzn-stat: restarts=0
%%%mzn-stat: peakDepth=2326
%%%mzn-stat: solveTime=3.428974615
%%%mzn-stat: variables=3315
%%%mzn-stat: propagators=2810
%%%mzn-stat: failures=1110
%%%mzn-stat: propagations=260260
%%%mzn-stat: nogoods=1110
%%%mzn-stat: numAtomicConstraintsPropagated=0
%%%mzn-stat: allDifferentNumber1TotalHallSetSize=2787
%%%mzn-stat: allDifferentNumber1NumberOfConflicts=1110
%%%mzn-stat: allDifferentNumber1MaxHallSetSize=86
%%%mzn-stat: allDifferentNumber1PropagationsTotal=52523
%%%mzn-stat: allDifferentNumber1PropagationsThatFoundConflict=1110
%%%mzn-stat: circuitNumber2PropagationsThatFoundConflict=0
%%%mzn-stat: circuitNumber2TotalFixedEdgesAtConflict=0
%%%mzn-stat: circuitNumber2NumberOfConflicts=0
%%%mzn-stat: circuitNumber2PropagationsThatPruned=155
%%%mzn-stat: circuitNumber2PropagationsTotal=38710
%%%mzn-stat: AverageConflictSize=2.4891891891891893
%%%mzn-stat: NumUnitNogoodsLearned=0
%%%mzn-stat: AverageLearnedNogoodLength=2.58018018018018
%%%mzn-stat: AverageBacktrackAmount=0
%%%mzn-stat: AverageLbd=2.5387387387387386
%%%mzn-stat: 2AutonomousSearchNumBackupCalled=2232
%%%mzn-stat: 2AutonomousSearchNumPredicatesRemoved=0
%%%mzn-stat: 2AutonomousSearchNumCalls=2233
%%%mzn-stat: 2AutonomousSearchNumPredicatesAdded=1530
%%%mzn-stat: 2AutonomousSearchAverageSizeOfHeap=0.6851768920734438
%%%mzn-stat: 2AutonomousSearchNumAssignedPredicatesEncountered=1530
%%%mzn-stat-end
maxleg = 430;
succ = array1d(1..100,[3, 8, 6, 1, 4, 17, 13, 10, 5, 14, 12, 34, 19, 9, 2, 20, 18, 22, 27, 21, 25, 11, 15, 28, 23, 16, 32, 29, 7, 36, 33, 35, 37, 38, 43, 53, 39, 49, 24, 26, 30, 40, 50, 31, 44, 41, 42, 46, 54, 56, 63, 47, 57, 58, 48, 51, 52, 59, 60, 65, 45, 68, 64, 67, 62, 69, 66, 70, 80, 71, 72, 74, 61, 78, 55, 85, 92, 98, 77, 81, 75, 73, 89, 86, 88, 82, 84, 95, 97, 87, 100, 93, 83, 99, 91, 76, 96, 79, 90, 94]);
% time elapsed: 3.85 s
----------
%%%mzn-stat: initTime=0.043286614
%%%mzn-stat: objective=428
%%%mzn-stat: nodes=45042
%%%mzn-stat: restarts=0
%%%mzn-stat: peakDepth=2326
%%%mzn-stat: solveTime=3.499048671
%%%mzn-stat: variables=3315
%%%mzn-stat: propagators=2810
%%%mzn-stat: failures=1176
%%%mzn-stat: propagations=270966
%%%mzn-stat: nogoods=1176
%%%mzn-stat: numAtomicConstraintsPropagated=0
%%%mzn-stat: allDifferentNumber1TotalHallSetSize=2970
%%%mzn-stat: allDifferentNumber1NumberOfConflicts=1176
%%%mzn-stat: allDifferentNumber1MaxHallSetSize=86
%%%mzn-stat: allDifferentNumber1PropagationsTotal=53892
%%%mzn-stat: allDifferentNumber1PropagationsThatFoundConflict=1176
%%%mzn-stat: circuitNumber2PropagationsThatFoundConflict=0
%%%mzn-stat: circuitNumber2TotalFixedEdgesAtConflict=0
%%%mzn-stat: circuitNumber2NumberOfConflicts=0
%%%mzn-stat: circuitNumber2PropagationsThatPruned=212
%%%mzn-stat: circuitNumber2PropagationsTotal=39660
%%%mzn-stat: AverageConflictSize=2.5314625850340136
%%%mzn-stat: NumUnitNogoodsLearned=0
%%%mzn-stat: AverageLearnedNogoodLength=2.663265306122449
%%%mzn-stat: AverageBacktrackAmount=0
%%%mzn-stat: AverageLbd=2.5892857142857144
%%%mzn-stat: 2AutonomousSearchNumBackupCalled=4460
%%%mzn-stat: 2AutonomousSearchNumPredicatesRemoved=0
%%%mzn-stat: 2AutonomousSearchNumCalls=4462
%%%mzn-stat: 2AutonomousSearchNumPredicatesAdded=1772
%%%mzn-stat: 2AutonomousSearchAverageSizeOfHeap=0.7077543702375616
%%%mzn-stat: 2AutonomousSearchNumAssignedPredicatesEncountered=3158
%%%mzn-stat-end
maxleg = 428;
succ = array1d(1..100,[3, 8, 6, 1, 4, 17, 13, 10, 5, 14, 12, 34, 19, 9, 2, 20, 18, 22, 27, 21, 25, 11, 15, 28, 23, 16, 32, 29, 7, 36, 33, 35, 37, 38, 43, 53, 39, 49, 24, 26, 30, 40, 50, 31, 44, 41, 42, 46, 54, 56, 63, 48, 57, 58, 47, 51, 55, 59, 60, 65, 45, 68, 64, 67, 62, 69, 66, 70, 80, 71, 72, 74, 61, 78, 73, 85, 52, 98, 83, 81, 82, 86, 89, 75, 88, 87, 90, 94, 97, 99, 84, 77, 92, 95, 100, 76, 96, 79, 93, 91]);
% time elapsed: 3.90 s
----------
%%%mzn-stat: initTime=0.043286614
%%%mzn-stat: objective=416
%%%mzn-stat: nodes=47378
%%%mzn-stat: restarts=0
%%%mzn-stat: peakDepth=2326
%%%mzn-stat: solveTime=3.516127613
%%%mzn-stat: variables=3315
%%%mzn-stat: propagators=2810
%%%mzn-stat: failures=1182
%%%mzn-stat: propagations=275720
%%%mzn-stat: nogoods=1182
%%%mzn-stat: numAtomicConstraintsPropagated=0
%%%mzn-stat: allDifferentNumber1TotalHallSetSize=2982
%%%mzn-stat: allDifferentNumber1NumberOfConflicts=1182
%%%mzn-stat: allDifferentNumber1MaxHallSetSize=86
%%%mzn-stat: allDifferentNumber1PropagationsTotal=54084
%%%mzn-stat: allDifferentNumber1PropagationsThatFoundConflict=1182
%%%mzn-stat: circuitNumber2PropagationsThatFoundConflict=0
%%%mzn-stat: circuitNumber2TotalFixedEdgesAtConflict=0
%%%mzn-stat: circuitNumber2NumberOfConflicts=0
%%%mzn-stat: circuitNumber2PropagationsThatPruned=220
%%%mzn-stat: circuitNumber2PropagationsTotal=39792
%%%mzn-stat: AverageConflictSize=2.5287648054145517
%%%mzn-stat: NumUnitNogoodsLearned=0
%%%mzn-stat: AverageLearnedNogoodLength=2.6598984771573604
%%%mzn-stat: AverageBacktrackAmount=0
%%%mzn-stat: AverageLbd=2.5862944162436547
%%%mzn-stat: 2AutonomousSearchNumBackupCalled=6667
%%%mzn-stat: 2AutonomousSearchNumPredicatesRemoved=0
%%%mzn-stat: 2AutonomousSearchNumCalls=6670
%%%mzn-stat: 2AutonomousSearchNumPredicatesAdded=1781
%%%mzn-stat: 2AutonomousSearchAverageSizeOfHeap=0.7176911544227886
%%%mzn-stat: 2AutonomousSearchNumAssignedPredicatesEncountered=4787
%%%mzn-stat-end
maxleg = 416;
succ = array1d(1..100,[3, 8, 6, 1, 4, 17, 13, 10, 5, 14, 12, 34, 19, 9, 2, 20, 18, 22, 27, 21, 25, 11, 15, 28, 23, 16, 32, 29, 7, 36, 33, 35, 37, 38, 43, 53, 39, 49, 24, 26, 30, 40, 50, 31, 44, 41, 42, 46, 54, 56, 63, 48, 57, 58, 47, 51, 55, 59, 60, 65, 45, 68, 64, 67, 62, 69, 66, 70, 80, 71, 72, 74, 61, 78, 73, 85, 52, 98, 83, 81, 82, 86, 89, 75, 96, 87, 90, 94, 97, 99, 84, 77, 92, 95, 100, 88, 76, 79, 93, 91]);
% time elapsed: 3.92 s
----------
%%%mzn-stat: initTime=0.043286614
%%%mzn-stat: objective=407
%%%mzn-stat: nodes=49725
%%%mzn-stat: restarts=0
%%%mzn-stat: peakDepth=2326
%%%mzn-stat: solveTime=3.535039913
%%%mzn-stat: variables=3315
%%%mzn-stat: propagators=2810
%%%mzn-stat: failures=1193
%%%mzn-stat: propagations=280883
%%%mzn-stat: nogoods=1193
%%%mzn-stat: numAtomicConstraintsPropagated=0
%%%mzn-stat: allDifferentNumber1TotalHallSetSize=3061
%%%mzn-stat: allDifferentNumber1NumberOfConflicts=1193
%%%mzn-stat: allDifferentNumber1MaxHallSetSize=86
%%%mzn-stat: allDifferentNumber1PropagationsTotal=54335
%%%mzn-stat: allDifferentNumber1PropagationsThatFoundConflict=1193
%%%mzn-stat: circuitNumber2PropagationsThatFoundConflict=0
%%%mzn-stat: circuitNumber2TotalFixedEdgesAtConflict=0
%%%mzn-stat: circuitNumber2NumberOfConflicts=0
%%%mzn-stat: circuitNumber2PropagationsThatPruned=241
%%%mzn-stat: circuitNumber2PropagationsTotal=39963
%%%mzn-stat: AverageConflictSize=2.6068734283319364
%%%mzn-stat: NumUnitNogoodsLearned=0
%%%mzn-stat: AverageLearnedNogoodLength=2.7912824811399832
%%%mzn-stat: AverageBacktrackAmount=0
%%%mzn-stat: AverageLbd=2.6538139145012574
%%%mzn-stat: 2AutonomousSearchNumBackupCalled=8855
%%%mzn-stat: 2AutonomousSearchNumPredicatesRemoved=0
%%%mzn-stat: 2AutonomousSearchNumCalls=8859
%%%mzn-stat: 2AutonomousSearchNumPredicatesAdded=2055
%%%mzn-stat: 2AutonomousSearchAverageSizeOfHeap=0.7392482221469692
%%%mzn-stat: 2AutonomousSearchNumAssignedPredicatesEncountered=6549
%%%mzn-stat-end
maxleg = 407;
succ = array1d(1..100,[3, 8, 6, 1, 4, 17, 13, 10, 5, 14, 12, 34, 19, 9, 2, 20, 18, 22, 27, 21, 25, 11, 15, 28, 23, 16, 32, 29, 7, 36, 33, 35, 37, 38, 43, 53, 39, 49, 24, 26, 30, 40, 50, 31, 44, 41, 42, 46, 54, 56, 63, 48, 57, 58, 47, 51, 55, 59, 60, 65, 45, 68, 64, 67, 62, 69, 66, 70, 80, 71, 72, 74, 61, 78, 73, 88, 52, 98, 83, 81, 82, 86, 89, 75, 96, 87, 90, 94, 97, 99, 84, 77, 92, 95, 100, 76, 85, 79, 93, 91]);
% time elapsed: 3.94 s
----------
%%%mzn-stat: initTime=0.043286614
%%%mzn-stat: objective=400
%%%mzn-stat: nodes=52354
%%%mzn-stat: restarts=0
%%%mzn-stat: peakDepth=2326
%%%mzn-stat: solveTime=3.572267353
%%%mzn-stat: variables=3315
%%%mzn-stat: propagators=2810
%%%mzn-stat: failures=1233
%%%mzn-stat: propagations=288272
%%%mzn-stat: nogoods=1233
%%%mzn-stat: numAtomicConstraintsPropagated=0
%%%mzn-stat: allDifferentNumber1TotalHallSetSize=3450
%%%mzn-stat: allDifferentNumber1NumberOfConflicts=1231
%%%mzn-stat: allDifferentNumber1MaxHallSetSize=86
%%%mzn-stat: allDifferentNumber1PropagationsTotal=54928
%%%mzn-stat: allDifferentNumber1PropagationsThatFoundConflict=1231
%%%mzn-stat: circuitNumber2PropagationsThatFoundConflict=2
%%%mzn-stat: circuitNumber2TotalFixedEdgesAtConflict=168
%%%mzn-stat: circuitNumber2NumberOfConflicts=2
%%%mzn-stat: circuitNumber2PropagationsThatPruned=248
%%%mzn-stat: circuitNumber2PropagationsTotal=40393
%%%mzn-stat: AverageConflictSize=3.0373073803730737
%%%mzn-stat: NumUnitNogoodsLearned=0
%%%mzn-stat: AverageLearnedNogoodLength=3.294403892944039
%%%mzn-stat: AverageBacktrackAmount=0
%%%mzn-stat: AverageLbd=2.9156528791565286
%%%mzn-stat: 2AutonomousSearchNumBackupCalled=11033
%%%mzn-stat: 2AutonomousSearchNumPredicatesRemoved=0
%%%mzn-stat: 2AutonomousSearchNumCalls=11038
%%%mzn-stat: 2AutonomousSearchNumPredicatesAdded=2532
%%%mzn-stat: 2AutonomousSearchAverageSizeOfHeap=0.7705200217430694
%%%mzn-stat: 2AutonomousSearchNumAssignedPredicatesEncountered=8505
%%%mzn-stat-end
maxleg = 400;
succ = array1d(1..100,[3, 8, 6, 1, 4, 17, 13, 10, 5, 14, 12, 34, 19, 9, 2, 20, 18, 22, 27, 21, 25, 11, 15, 28, 23, 16, 32, 29, 7, 36, 33, 35, 37, 38, 43, 53, 39, 49, 24, 26, 30, 40, 50, 31, 44, 41, 42, 46, 54, 56, 63, 48, 57, 58, 47, 51, 55, 59, 60, 65, 45, 68, 64, 96, 62, 67, 69, 70, 80, 71, 72, 74, 61, 78, 73, 88, 92, 98, 83, 81, 75, 52, 77, 66, 89, 82, 84, 94, 97, 87, 86, 93, 99, 95, 100, 85, 76, 79, 90, 91]);
% time elapsed: 3.98 s
----------
%%%mzn-stat: initTime=0.043286614
%%%mzn-stat: objective=391
%%%mzn-stat: nodes=57166
%%%mzn-stat: restarts=0
%%%mzn-stat: peakDepth=2326
%%%mzn-stat: solveTime=4.592173111
%%%mzn-stat: variables=3315
%%%mzn-stat: propagators=2810
%%%mzn-stat: failures=2684
%%%mzn-stat: propagations=336707
%%%mzn-stat: nogoods=2684
%%%mzn-stat: numAtomicConstraintsPropagated=0
%%%mzn-stat: allDifferentNumber1TotalHallSetSize=25075
%%%mzn-stat: allDifferentNumber1NumberOfConflicts=2434
%%%mzn-stat: allDifferentNumber1MaxHallSetSize=86
%%%mzn-stat: allDifferentNumber1PropagationsTotal=60919
%%%mzn-stat: allDifferentNumber1PropagationsThatFoundConflict=2434
%%%mzn-stat: circuitNumber2PropagationsThatFoundConflict=230
%%%mzn-stat: circuitNumber2TotalFixedEdgesAtConflict=19271
%%%mzn-stat: circuitNumber2NumberOfConflicts=230
%%%mzn-stat: circuitNumber2PropagationsThatPruned=861
%%%mzn-stat: circuitNumber2PropagationsTotal=43407
%%%mzn-stat: AverageConflictSize=18.011549925484353
%%%mzn-stat: NumUnitNogoodsLearned=0
%%%mzn-stat: AverageLearnedNogoodLength=41.05439642324888
%%%mzn-stat: AverageBacktrackAmount=0
%%%mzn-stat: AverageLbd=28.015648286140088
%%%mzn-stat: 2AutonomousSearchNumBackupCalled=13217
%%%mzn-stat: 2AutonomousSearchNumPredicatesRemoved=0
%%%mzn-stat: 2AutonomousSearchNumCalls=13223
%%%mzn-stat: 2AutonomousSearchNumPredicatesAdded=3503
%%%mzn-stat: 2AutonomousSearchAverageSizeOfHeap=0.824926264841564
%%%mzn-stat: 2AutonomousSearchNumAssignedPredicatesEncountered=10908
%%%mzn-stat-end
maxleg = 391;
succ = array1d(1..100,[3, 8, 6, 1, 4, 17, 13, 10, 5, 14, 12, 34, 19, 9, 2, 20, 18, 22, 27, 21, 25, 11, 15, 28, 23, 16, 32, 29, 7, 36, 33, 35, 37, 38, 43, 53, 39, 49, 24, 26, 30, 40, 50, 31, 44, 41, 42, 46, 54, 56, 63, 48, 57, 58, 47, 51, 55, 59, 60, 65, 45, 68, 64, 96, 62, 67, 69, 70, 80, 71, 72, 76, 61, 78, 73, 88, 92, 77, 98, 81, 75, 86, 79, 66, 97, 84, 82, 95, 83, 87, 100, 93, 52, 99, 91, 85, 89, 74, 90, 94]);
% time elapsed: 5.01 s
----------
%%%mzn-stat: initTime=0.043286614
%%%mzn-stat: objective=386
%%%mzn-stat: nodes=59403
%%%mzn-stat: restarts=0
%%%mzn-stat: peakDepth=2326
%%%mzn-stat: solveTime=4.6074656560000005
%%%mzn-stat: variables=3315
%%%mzn-stat: propagators=2810
%%%mzn-stat: failures=2688
%%%mzn-stat: propagations=341413
%%%mzn-stat: nogoods=2688
%%%mzn-stat: numAtomicConstraintsPropagated=0
%%%mzn-stat: allDifferentNumber1TotalHallSetSize=25142
%%%mzn-stat: allDifferentNumber1NumberOfConflicts=2438
%%%mzn-stat: allDifferentNumber1MaxHallSetSize=86
%%%mzn-stat: allDifferentNumber1PropagationsTotal=61060
%%%mzn-stat: allDifferentNumber1PropagationsThatFoundConflict=2438
%%%mzn-stat: circuitNumber2PropagationsThatFoundConflict=230
%%%mzn-stat: circuitNumber2TotalFixedEdgesAtConflict=19271
%%%mzn-stat: circuitNumber2NumberOfConflicts=230
%%%mzn-stat: circuitNumber2PropagationsThatPruned=864
%%%mzn-stat: circuitNumber2PropagationsTotal=43507
%%%mzn-stat: AverageConflictSize=18.01748511904762
%%%mzn-stat: NumUnitNogoodsLearned=0
%%%mzn-stat: AverageLearnedNogoodLength=41.05840773809524
%%%mzn-stat: AverageBacktrackAmount=0
%%%mzn-stat: AverageLbd=28.0078125
%%%mzn-stat: 2AutonomousSearchNumBackupCalled=15356
%%%mzn-stat: 2AutonomousSearchNumPredicatesRemoved=0
%%%mzn-stat: 2AutonomousSearchNumCalls=15363
%%%mzn-stat: 2AutonomousSearchNumPredicatesAdded=3732
%%%mzn-stat: 2AutonomousSearchAverageSizeOfHeap=0.8664974288875871
%%%mzn-stat: 2AutonomousSearchNumAssignedPredicatesEncountered=13312
%%%mzn-stat-end
maxleg = 386;
succ = array1d(1..100,[3, 8, 6, 1, 4, 17, 13, 10, 5, 14, 12, 34, 19, 9, 2, 20, 18, 22, 27, 21, 25, 11, 15, 28, 23, 16, 32, 29, 7, 36, 33, 35, 37, 38, 43, 53, 39, 49, 24, 26, 30, 40, 50, 31, 44, 41, 42, 46, 54, 56, 63, 48, 57, 58, 47, 51, 55, 59, 60, 65, 45, 68, 64, 96, 62, 67, 69, 70, 80, 71, 72, 76, 61, 78, 73, 88, 92, 98, 77, 81, 75, 86, 74, 66, 97, 84, 82, 95, 83, 87, 100, 93, 52, 99, 91, 85, 89, 79, 90, 94]);
% time elapsed: 5.03 s
----------
%%%mzn-stat: initTime=0.043286614
%%%mzn-stat: objective=378
%%%mzn-stat: nodes=65934
%%%mzn-stat: restarts=0
%%%mzn-stat: peakDepth=2326
%%%mzn-stat: solveTime=4.9217300040000005
%%%mzn-stat: variables=3315
%%%mzn-stat: propagators=2810
%%%mzn-stat: failures=2870
%%%mzn-stat: propagations=379547
%%%mzn-stat: nogoods=2870
%%%mzn-stat: numAtomicConstraintsPropagated=0
%%%mzn-stat: allDifferentNumber1TotalHallSetSize=25736
%%%mzn-stat: allDifferentNumber1NumberOfConflicts=2620
%%%mzn-stat: allDifferentNumber1MaxHallSetSize=86
%%%mzn-stat: allDifferentNumber1PropagationsTotal=67327
%%%mzn-stat: allDifferentNumber1PropagationsThatFoundConflict=2620
%%%mzn-stat: circuitNumber2PropagationsThatFoundConflict=230
%%%mzn-stat: circuitNumber2TotalFixedEdgesAtConflict=19271
%%%mzn-stat: circuitNumber2NumberOfConflicts=230
%%%mzn-stat: circuitNumber2PropagationsThatPruned=985
%%%mzn-stat: circuitNumber2PropagationsTotal=47801
%%%mzn-stat: AverageConflictSize=17.258188153310105
%%%mzn-stat: NumUnitNogoodsLearned=0
%%%mzn-stat: AverageLearnedNogoodLength=38.833797909407664
%%%mzn-stat: AverageBacktrackAmount=0
%%%mzn-stat: AverageLbd=26.45644599303136
%%%mzn-stat: 2AutonomousSearchNumBackupCalled=17534
%%%mzn-stat: 2AutonomousSearchNumPredicatesRemoved=0
%%%mzn-stat: 2AutonomousSearchNumCalls=17542
%%%mzn-stat: 2AutonomousSearchNumPredicatesAdded=4122
%%%mzn-stat: 2AutonomousSearchAverageSizeOfHeap=0.9044578725344886
%%%mzn-stat: 2AutonomousSearchNumAssignedPredicatesEncountered=15866
%%%mzn-stat-end
maxleg = 378;
succ = array1d(1..100,[3, 8, 6, 1, 4, 17, 13, 10, 5, 14, 12, 34, 19, 9, 2, 20, 18, 22, 32, 21, 25, 11, 15, 28, 23, 16, 7, 27, 31, 36, 33, 35, 37, 38, 43, 53, 39, 49, 24, 26, 30, 40, 50, 42, 44, 41, 45, 46, 54, 56, 29, 48, 57, 58, 47, 59, 55, 60, 63, 65, 73, 68, 64, 96, 62, 67, 51, 70, 66, 71, 72, 74, 75, 78, 81, 80, 83, 98, 77, 69, 82, 86, 89, 61, 88, 87, 90, 94, 97, 99, 95, 52, 92, 100, 84, 85, 76, 79, 93, 91]);
% time elapsed: 5.35 s
----------
%%%mzn-stat: initTime=0.043286614
%%%mzn-stat: objective=377
%%%mzn-stat: nodes=69259
%%%mzn-stat: restarts=0
%%%mzn-stat: peakDepth=2326
%%%mzn-stat: solveTime=5.194320929
%%%mzn-stat: variables=3315
%%%mzn-stat: propagators=2810
%%%mzn-stat: failures=3213
%%%mzn-stat: propagations=396446
%%%mzn-stat: nogoods=3213
%%%mzn-stat: numAtomicConstraintsPropagated=0
%%%mzn-stat: allDifferentNumber1TotalHallSetSize=31175
%%%mzn-stat: allDifferentNumber1NumberOfConflicts=2963
%%%mzn-stat: allDifferentNumber1MaxHallSetSize=86
%%%mzn-stat: allDifferentNumber1PropagationsTotal=69845
%%%mzn-stat: allDifferentNumber1PropagationsThatFoundConflict=2963
%%%mzn-stat: circuitNumber2PropagationsThatFoundConflict=230
%%%mzn-stat: circuitNumber2TotalFixedEdgesAtConflict=19271
%%%mzn-stat: circuitNumber2NumberOfConflicts=230
%%%mzn-stat: circuitNumber2PropagationsThatPruned=1248
%%%mzn-stat: circuitNumber2PropagationsTotal=49135
%%%mzn-stat: AverageConflictSize=19.16090880796763
%%%mzn-stat: NumUnitNogoodsLearned=0
%%%mzn-stat: AverageLearnedNogoodLength=41.012760659819484
%%%mzn-stat: AverageBacktrackAmount=0
%%%mzn-stat: AverageLbd=28.384064737005914
%%%mzn-stat: 2AutonomousSearchNumBackupCalled=19688
%%%mzn-stat: 2AutonomousSearchNumPredicatesRemoved=0
%%%mzn-stat: 2AutonomousSearchNumCalls=19697
%%%mzn-stat: 2AutonomousSearchNumPredicatesAdded=5016
%%%mzn-stat: 2AutonomousSearchAverageSizeOfHeap=0.9477585419099355
%%%mzn-stat: 2AutonomousSearchNumAssignedPredicatesEncountered=18668
%%%mzn-stat-end
maxleg = 377;
succ = array1d(1..100,[3, 8, 6, 1, 4, 17, 13, 10, 5, 14, 12, 34, 19, 9, 2, 20, 18, 22, 32, 21, 25, 11, 15, 28, 23, 16, 7, 27, 31, 36, 33, 35, 37, 38, 43, 53, 39, 49, 24, 26, 30, 40, 50, 42, 44, 41, 45, 46, 54, 56, 29, 48, 57, 58, 47, 59, 55, 60, 96, 63, 73, 65, 51, 67, 68, 69, 66, 70, 80, 71, 72, 74, 75, 78, 81, 85, 92, 98, 77, 84, 82, 86, 62, 61, 97, 87, 90, 76, 83, 99, 95, 93, 52, 100, 88, 64, 89, 79, 94, 91]);
% time elapsed: 5.63 s
----------
%%%mzn-stat: initTime=0.043286614
%%%mzn-stat: objective=367
%%%mzn-stat: nodes=71671
%%%mzn-stat: restarts=0
%%%mzn-stat: peakDepth=2326
%%%mzn-stat: solveTime=5.451803151
%%%mzn-stat: variables=3315
%%%mzn-stat: propagators=2810
%%%mzn-stat: failures=3448
%%%mzn-stat: propagations=407666
%%%mzn-stat: nogoods=3448
%%%mzn-stat: numAtomicConstraintsPropagated=0
%%%mzn-stat: allDifferentNumber1TotalHallSetSize=35258
%%%mzn-stat: allDifferentNumber1NumberOfConflicts=3194
%%%mzn-stat: allDifferentNumber1MaxHallSetSize=86
%%%mzn-stat: allDifferentNumber1PropagationsTotal=70882
%%%mzn-stat: allDifferentNumber1PropagationsThatFoundConflict=3194
%%%mzn-stat: circuitNumber2PropagationsThatFoundConflict=232
%%%mzn-stat: circuitNumber2TotalFixedEdgesAtConflict=19437
%%%mzn-stat: circuitNumber2NumberOfConflicts=232
%%%mzn-stat: circuitNumber2PropagationsThatPruned=1544
%%%mzn-stat: circuitNumber2PropagationsTotal=49688
%%%mzn-stat: AverageConflictSize=20.15516241299304
%%%mzn-stat: NumUnitNogoodsLearned=0
%%%mzn-stat: AverageLearnedNogoodLength=44.29611368909513
%%%mzn-stat: AverageBacktrackAmount=0
%%%mzn-stat: AverageLbd=31.466647331786543
%%%mzn-stat: 2AutonomousSearchNumBackupCalled=21764
%%%mzn-stat: 2AutonomousSearchNumPredicatesRemoved=0
%%%mzn-stat: 2AutonomousSearchNumCalls=21774
%%%mzn-stat: 2AutonomousSearchNumPredicatesAdded=5939
%%%mzn-stat: 2AutonomousSearchAverageSizeOfHeap=0.9885184164599982
%%%mzn-stat: 2AutonomousSearchNumAssignedPredicatesEncountered=21524
%%%mzn-stat-end
maxleg = 367;
succ = array1d(1..100,[3, 8, 6, 1, 4, 17, 13, 10, 5, 14, 12, 34, 19, 9, 2, 20, 18, 22, 32, 21, 25, 11, 15, 28, 23, 16, 7, 27, 31, 36, 33, 35, 37, 38, 43, 53, 39, 49, 24, 26, 30, 40, 50, 42, 44, 41, 45, 46, 54, 56, 29, 48, 57, 58, 47, 59, 55, 60, 96, 63, 73, 65, 51, 67, 68, 69, 66, 70, 80, 71, 72, 74, 75, 79, 81, 85, 92, 77, 98, 84, 82, 86, 62, 61, 97, 87, 90, 76, 83, 99, 95, 93, 52, 100, 88, 64, 89, 78, 94, 91]);
% time elapsed: 5.90 s
----------
%%%mzn-stat: initTime=0.043286614
%%%mzn-stat: objective=362
%%%mzn-stat: nodes=76231
%%%mzn-stat: restarts=0
%%%mzn-stat: peakDepth=2326
%%%mzn-stat: solveTime=5.826619938
%%%mzn-stat: variables=3315
%%%mzn-stat: propagators=2810
%%%mzn-stat: failures=3943
%%%mzn-stat: propagations=439913
%%%mzn-stat: nogoods=3943
%%%mzn-stat: numAtomicConstraintsPropagated=0
%%%mzn-stat: allDifferentNumber1TotalHallSetSize=49456
%%%mzn-stat: allDifferentNumber1NumberOfConflicts=3684
%%%mzn-stat: allDifferentNumber1MaxHallSetSize=86
%%%mzn-stat: allDifferentNumber1PropagationsTotal=75194
%%%mzn-stat: allDifferentNumber1PropagationsThatFoundConflict=3684
%%%mzn-stat: circuitNumber2PropagationsThatFoundConflict=233
%%%mzn-stat: circuitNumber2TotalFixedEdgesAtConflict=19518
%%%mzn-stat: circuitNumber2NumberOfConflicts=233
%%%mzn-stat: circuitNumber2PropagationsThatPruned=1597
%%%mzn-stat: circuitNumber2PropagationsTotal=52273
%%%mzn-stat: AverageConflictSize=27.77301547045397
%%%mzn-stat: NumUnitNogoodsLearned=0
%%%mzn-stat: AverageLearnedNogoodLength=49.73370530053259
%%%mzn-stat: AverageBacktrackAmount=0
%%%mzn-stat: AverageLbd=32.52320568095359
%%%mzn-stat: 2AutonomousSearchNumBackupCalled=23827
%%%mzn-stat: 2AutonomousSearchNumPredicatesRemoved=0
%%%mzn-stat: 2AutonomousSearchNumCalls=23838
%%%mzn-stat: 2AutonomousSearchNumPredicatesAdded=6866
%%%mzn-stat: 2AutonomousSearchAverageSizeOfHeap=1.0319238191123417
%%%mzn-stat: 2AutonomousSearchNumAssignedPredicatesEncountered=24599
%%%mzn-stat-end
maxleg = 362;
succ = array1d(1..100,[3, 8, 6, 1, 4, 17, 13, 10, 5, 14, 12, 34, 19, 9, 2, 20, 18, 22, 32, 21, 25, 30, 15, 28, 23, 16, 7, 27, 31, 36, 33, 35, 37, 38, 43, 53, 39, 49, 24, 26, 40, 41, 50, 42, 44, 47, 45, 46, 54, 11, 29, 48, 57, 58, 52, 51, 68, 59, 96, 63, 73, 65, 56, 67, 60, 69, 66, 62, 80, 71, 72, 74, 75, 79, 55, 85, 92, 77, 98, 76, 61, 81, 70, 86, 97, 87, 90, 95, 83, 82, 100, 93, 99, 88, 91, 64, 89, 78, 94, 84]);
% time elapsed: 6.28 s
----------
%%%mzn-stat: initTime=0.043286614
%%%mzn-stat: objective=361
%%%mzn-stat: nodes=79579
%%%mzn-stat: restarts=0
%%%mzn-stat: peakDepth=2326
%%%mzn-stat: solveTime=6.075189335
%%%mzn-stat: variables=3315
%%%mzn-stat: propagators=2810
%%%mzn-stat: failures=4366
%%%mzn-stat: propagations=460937
%%%mzn-stat: nogoods=4366
%%%mzn-stat: numAtomicConstraintsPropagated=0
%%%mzn-stat: allDifferentNumber1TotalHallSetSize=63701
%%%mzn-stat: allDifferentNumber1NumberOfConflicts=4104
%%%mzn-stat: allDifferentNumber1MaxHallSetSize=86
%%%mzn-stat: allDifferentNumber1PropagationsTotal=77661
%%%mzn-stat: allDifferentNumber1PropagationsThatFoundConflict=4104
%%%mzn-stat: circuitNumber2PropagationsThatFoundConflict=233
%%%mzn-stat: circuitNumber2TotalFixedEdgesAtConflict=19518
%%%mzn-stat: circuitNumber2NumberOfConflicts=233
%%%mzn-stat: circuitNumber2PropagationsThatPruned=1631
%%%mzn-stat: circuitNumber2PropagationsTotal=53620
%%%mzn-stat: AverageConflictSize=32.15460375629867
%%%mzn-stat: NumUnitNogoodsLearned=0
%%%mzn-stat: AverageLearnedNogoodLength=53.12001832340815
%%%mzn-stat: AverageBacktrackAmount=0
%%%mzn-stat: AverageLbd=33.41136051305543
%%%mzn-stat: 2AutonomousSearchNumBackupCalled=25928
%%%mzn-stat: 2AutonomousSearchNumPredicatesRemoved=0
%%%mzn-stat: 2AutonomousSearchNumCalls=25940
%%%mzn-stat: 2AutonomousSearchNumPredicatesAdded=7807
%%%mzn-stat: 2AutonomousSearchAverageSizeOfHeap=1.0684271395528142
%%%mzn-stat: 2AutonomousSearchNumAssignedPredicatesEncountered=27715
%%%mzn-stat-end
maxleg = 361;
succ = array1d(1..100,[3, 8, 6, 1, 4, 17, 13, 10, 5, 14, 12, 34, 19, 9, 2, 20, 18, 22, 32, 21, 25, 30, 15, 28, 23, 16, 7, 27, 31, 36, 33, 35, 37, 38, 43, 53, 39, 49, 24, 26, 40, 41, 59, 42, 44, 47, 45, 46, 50, 54, 29, 48, 57, 58, 52, 51, 68, 60, 96, 63, 73, 11, 56, 67, 62, 69, 66, 65, 80, 71, 72, 74, 75, 79, 55, 85, 92, 77, 98, 76, 61, 81, 70, 86, 97, 87, 90, 95, 83, 82, 100, 93, 99, 88, 91, 64, 89, 78, 94, 84]);
% time elapsed: 6.53 s
----------
%%%mzn-stat: initTime=0.043286614
%%%mzn-stat: objective=350
%%%mzn-stat: nodes=81814
%%%mzn-stat: restarts=0
%%%mzn-stat: peakDepth=2326
%%%mzn-stat: solveTime=6.09441864
%%%mzn-stat: variables=3315
%%%mzn-stat: propagators=2810
%%%mzn-stat: failures=4384
%%%mzn-stat: propagations=466449
%%%mzn-stat: nogoods=4384
%%%mzn-stat: numAtomicConstraintsPropagated=0
%%%mzn-stat: allDifferentNumber1TotalHallSetSize=63764
%%%mzn-stat: allDifferentNumber1NumberOfConflicts=4115
%%%mzn-stat: allDifferentNumber1MaxHallSetSize=86
%%%mzn-stat: allDifferentNumber1PropagationsTotal=77950
%%%mzn-stat: allDifferentNumber1PropagationsThatFoundConflict=4115
%%%mzn-stat: circuitNumber2PropagationsThatFoundConflict=233
%%%mzn-stat: circuitNumber2TotalFixedEdgesAtConflict=19518
%%%mzn-stat: circuitNumber2NumberOfConflicts=233
%%%mzn-stat: circuitNumber2PropagationsThatPruned=1641
%%%mzn-stat: circuitNumber2PropagationsTotal=53792
%%%mzn-stat: AverageConflictSize=32.07276459854015
%%%mzn-stat: NumUnitNogoodsLearned=0
%%%mzn-stat: AverageLearnedNogoodLength=52.941149635036496
%%%mzn-stat: AverageBacktrackAmount=0
%%%mzn-stat: AverageLbd=33.31090328467153
%%%mzn-stat: 2AutonomousSearchNumBackupCalled=27986
%%%mzn-stat: 2AutonomousSearchNumPredicatesRemoved=0
%%%mzn-stat: 2AutonomousSearchNumCalls=27999
%%%mzn-stat: 2AutonomousSearchNumPredicatesAdded=7865
%%%mzn-stat: 2AutonomousSearchAverageSizeOfHeap=1.101503625129469
%%%mzn-stat: 2AutonomousSearchNumAssignedPredicatesEncountered=30841
%%%mzn-stat-end
maxleg = 350;
succ = array1d(1..100,[3, 8, 6, 1, 4, 17, 13, 10, 5, 14, 12, 34, 19, 9, 2, 20, 18, 22, 32, 21, 25, 30, 15, 28, 23, 16, 7, 27, 31, 36, 33, 35, 37, 38, 43, 53, 39, 49, 24, 26, 40, 41, 59, 42, 44, 47, 45, 46, 50, 54, 29, 48, 57, 58, 52, 51, 68, 60, 96, 63, 73, 11, 56, 67, 62, 69, 66, 65, 80, 71, 72, 74, 75, 79, 55, 85, 92, 77, 98, 76, 61, 81, 70, 87, 97, 90, 82, 95, 83, 84, 86, 93, 99, 88, 100, 64, 89, 78, 94, 91]);
% time elapsed: 6.55 s
----------
%%%mzn-stat: initTime=0.043286614
%%%mzn-stat: objective=345
%%%mzn-stat: nodes=84409
%%%mzn-stat: restarts=0
%%%mzn-stat: peakDepth=2326
%%%mzn-stat: solveTime=6.152265341
%%%mzn-stat: variables=3315
%%%mzn-stat: propagators=2810
%%%mzn-stat: failures=4433
%%%mzn-stat: propagations=475650
%%%mzn-stat: nogoods=4433
%%%mzn-stat: numAtomicConstraintsPropagated=0
%%%mzn-stat: allDifferentNumber1TotalHallSetSize=64115
%%%mzn-stat: allDifferentNumber1NumberOfConflicts=4158
%%%mzn-stat: allDifferentNumber1MaxHallSetSize=86
%%%mzn-stat: allDifferentNumber1PropagationsTotal=78848
%%%mzn-stat: allDifferentNumber1PropagationsThatFoundConflict=4158
%%%mzn-stat: circuitNumber2PropagationsThatFoundConflict=238
%%%mzn-stat: circuitNumber2TotalFixedEdgesAtConflict=19966
%%%mzn-stat: circuitNumber2NumberOfConflicts=238
%%%mzn-stat: circuitNumber2PropagationsThatPruned=1663
%%%mzn-stat: circuitNumber2PropagationsTotal=54325
%%%mzn-stat: AverageConflictSize=32.00834649221746
%%%mzn-stat: NumUnitNogoodsLearned=0
%%%mzn-stat: AverageLearnedNogoodLength=52.764267990074444
%%%mzn-stat: AverageBacktrackAmount=0
%%%mzn-stat: AverageLbd=33.20618091585833
%%%mzn-stat: 2AutonomousSearchNumBackupCalled=30044
%%%mzn-stat: 2AutonomousSearchNumPredicatesRemoved=0
%%%mzn-stat: 2AutonomousSearchNumCalls=30058
%%%mzn-stat: 2AutonomousSearchNumPredicatesAdded=8599
%%%mzn-stat: 2AutonomousSearchAverageSizeOfHeap=1.1336748952026083
%%%mzn-stat: 2AutonomousSearchNumAssignedPredicatesEncountered=34076
%%%mzn-stat-end
maxleg = 345;
succ = array1d(1..100,[3, 8, 6, 1, 4, 17, 13, 10, 5, 14, 12, 34, 19, 9, 2, 20, 18, 22, 32, 21, 25, 30, 15, 28, 23, 16, 7, 27, 31, 36, 33, 35, 37, 38, 43, 53, 39, 49, 24, 26, 40, 41, 96, 42, 44, 47, 45, 46, 50, 54, 29, 48, 57, 58, 52, 51, 68, 60, 63, 65, 73, 11, 64, 67, 70, 69, 66, 62, 80, 71, 72, 74, 75, 79, 55, 56, 92, 77, 98, 81, 82, 87, 89, 61, 76, 90, 86, 95, 97, 99, 100, 93, 83, 88, 91, 59, 85, 78, 94, 84]);
% time elapsed: 6.61 s
----------
%%%mzn-stat: initTime=0.043286614
%%%mzn-stat: objective=332
%%%mzn-stat: nodes=86666
%%%mzn-stat: restarts=0
%%%mzn-stat: peakDepth=2326
%%%mzn-stat: solveTime=6.180210555
%%%mzn-stat: variables=3315
%%%mzn-stat: propagators=2810
%%%mzn-stat: failures=4452
%%%mzn-stat: propagations=482725
%%%mzn-stat: nogoods=4452
%%%mzn-stat: numAtomicConstraintsPropagated=0
%%%mzn-stat: allDifferentNumber1TotalHallSetSize=64208
%%%mzn-stat: allDifferentNumber1NumberOfConflicts=4176
%%%mzn-stat: allDifferentNumber1MaxHallSetSize=86
%%%mzn-stat: allDifferentNumber1PropagationsTotal=79297
%%%mzn-stat: allDifferentNumber1PropagationsThatFoundConflict=4176
%%%mzn-stat: circuitNumber2PropagationsThatFoundConflict=239
%%%mzn-stat: circuitNumber2TotalFixedEdgesAtConflict=20062
%%%mzn-stat: circuitNumber2NumberOfConflicts=239
%%%mzn-stat: circuitNumber2PropagationsThatPruned=1678
%%%mzn-stat: circuitNumber2PropagationsTotal=54630
%%%mzn-stat: AverageConflictSize=31.92789757412399
%%%mzn-stat: NumUnitNogoodsLearned=0
%%%mzn-stat: AverageLearnedNogoodLength=52.5947888589398
%%%mzn-stat: AverageBacktrackAmount=0
%%%mzn-stat: AverageLbd=33.10916442048517
%%%mzn-stat: 2AutonomousSearchNumBackupCalled=31995
%%%mzn-stat: 2AutonomousSearchNumPredicatesRemoved=0
%%%mzn-stat: 2AutonomousSearchNumCalls=32010
%%%mzn-stat: 2AutonomousSearchNumPredicatesAdded=8919
%%%mzn-stat: 2AutonomousSearchAverageSizeOfHeap=1.166166822867854
%%%mzn-stat: 2AutonomousSearchNumAssignedPredicatesEncountered=37329
%%%mzn-stat-end
maxleg = 332;
succ = array1d(1..100,[3, 8, 6, 1, 4, 17, 13, 10, 5, 14, 12, 34, 19, 9, 2, 20, 18, 22, 32, 21, 25, 30, 15, 28, 23, 16, 7, 27, 31, 36, 33, 35, 37, 38, 43, 53, 39, 49, 24, 26, 40, 41, 96, 42, 44, 47, 45, 46, 50, 54, 29, 48, 57, 58, 52, 51, 68, 60, 63, 65, 73, 11, 64, 67, 70, 86, 66, 62, 56, 71, 72, 74, 75, 79, 55, 80, 92, 77, 98, 69, 61, 81, 89, 87, 76, 91, 82, 94, 97, 84, 95, 93, 83, 99, 100, 59, 85, 78, 90, 88]);
% time elapsed: 6.65 s
----------
%%%mzn-stat: initTime=0.043286614
%%%mzn-stat: objective=330
%%%mzn-stat: nodes=93718
%%%mzn-stat: restarts=0
%%%mzn-stat: peakDepth=2326
%%%mzn-stat: solveTime=6.541573098
%%%mzn-stat: variables=3315
%%%mzn-stat: propagators=2810
%%%mzn-stat: failures=4675
%%%mzn-stat: propagations=538229
%%%mzn-stat: nogoods=4675
%%%mzn-stat: numAtomicConstraintsPropagated=0
%%%mzn-stat: allDifferentNumber1TotalHallSetSize=65534
%%%mzn-stat: allDifferentNumber1NumberOfConflicts=4398
%%%mzn-stat: allDifferentNumber1MaxHallSetSize=86
%%%mzn-stat: allDifferentNumber1PropagationsTotal=86726
%%%mzn-stat: allDifferentNumber1PropagationsThatFoundConflict=4398
%%%mzn-stat: circuitNumber2PropagationsThatFoundConflict=239
%%%mzn-stat: circuitNumber2TotalFixedEdgesAtConflict=20062
%%%mzn-stat: circuitNumber2NumberOfConflicts=239
%%%mzn-stat: circuitNumber2PropagationsThatPruned=1819
%%%mzn-stat: circuitNumber2PropagationsTotal=59622
%%%mzn-stat: AverageConflictSize=31.37903743315508
%%%mzn-stat: NumUnitNogoodsLearned=0
%%%mzn-stat: AverageLearnedNogoodLength=51.0703743315508
%%%mzn-stat: AverageBacktrackAmount=0
%%%mzn-stat: AverageLbd=31.836791443850267
%%%mzn-stat: 2AutonomousSearchNumBackupCalled=33988
%%%mzn-stat: 2AutonomousSearchNumPredicatesRemoved=0
%%%mzn-stat: 2AutonomousSearchNumCalls=34004
%%%mzn-stat: 2AutonomousSearchNumPredicatesAdded=9810
%%%mzn-stat: 2AutonomousSearchAverageSizeOfHeap=1.1990942242089166
%%%mzn-stat: 2AutonomousSearchNumAssignedPredicatesEncountered=40774
%%%mzn-stat-end
maxleg = 330;
succ = array1d(1..100,[3, 8, 6, 1, 4, 17, 13, 10, 5, 14, 12, 34, 27, 9, 2, 20, 18, 22, 7, 21, 25, 30, 15, 28, 23, 16, 32, 29, 31, 36, 33, 35, 37, 38, 43, 53, 39, 49, 40, 26, 42, 44, 85, 45, 47, 41, 55, 46, 50, 54, 24, 48, 57, 58, 75, 51, 52, 60, 96, 59, 73, 11, 56, 63, 62, 67, 64, 65, 80, 68, 70, 71, 81, 72, 61, 88, 78, 79, 98, 83, 82, 87, 93, 69, 89, 66, 90, 94, 97, 99, 86, 77, 92, 100, 91, 19, 76, 74, 84, 95]);
% time elapsed: 7.03 s
----------
%%%mzn-stat: initTime=0.043286614
%%%mzn-stat: objective=329
%%%mzn-stat: nodes=97350
%%%mzn-stat: restarts=0
%%%mzn-stat: peakDepth=2326
%%%mzn-stat: solveTime=6.679669819
%%%mzn-stat: variables=3315
%%%mzn-stat: propagators=2810
%%%mzn-stat: failures=4721
%%%mzn-stat: propagations=558724
%%%mzn-stat: nogoods=4721
%%%mzn-stat: numAtomicConstraintsPropagated=0
%%%mzn-stat: allDifferentNumber1TotalHallSetSize=66022
%%%mzn-stat: allDifferentNumber1NumberOfConflicts=4444
%%%mzn-stat: allDifferentNumber1MaxHallSetSize=86
%%%mzn-stat: allDifferentNumber1PropagationsTotal=89188
%%%mzn-stat: allDifferentNumber1PropagationsThatFoundConflict=4444
%%%mzn-stat: circuitNumber2PropagationsThatFoundConflict=239
%%%mzn-stat: circuitNumber2TotalFixedEdgesAtConflict=20062
%%%mzn-stat: circuitNumber2NumberOfConflicts=239
%%%mzn-stat: circuitNumber2PropagationsThatPruned=1861
%%%mzn-stat: circuitNumber2PropagationsTotal=61236
%%%mzn-stat: AverageConflictSize=31.451175598390172
%%%mzn-stat: NumUnitNogoodsLearned=0
%%%mzn-stat: AverageLearnedNogoodLength=50.95700063545859
%%%mzn-stat: AverageBacktrackAmount=0
%%%mzn-stat: AverageLbd=31.63143401821648
%%%mzn-stat: 2AutonomousSearchNumBackupCalled=36005
%%%mzn-stat: 2AutonomousSearchNumPredicatesRemoved=0
%%%mzn-stat: 2AutonomousSearchNumCalls=36022
%%%mzn-stat: 2AutonomousSearchNumPredicatesAdded=10488
%%%mzn-stat: 2AutonomousSearchAverageSizeOfHeap=1.2288323802120926
%%%mzn-stat: 2AutonomousSearchNumAssignedPredicatesEncountered=44265
%%%mzn-stat-end
maxleg = 329;
succ = array1d(1..100,[3, 8, 6, 1, 4, 17, 13, 10, 5, 14, 12, 34, 27, 9, 2, 20, 18, 22, 7, 21, 25, 30, 15, 28, 23, 16, 32, 33, 31, 36, 37, 35, 29, 38, 43, 53, 39, 49, 40, 26, 42, 44, 85, 45, 47, 41, 55, 46, 50, 54, 24, 48, 57, 58, 75, 51, 52, 60, 96, 59, 73, 11, 56, 63, 62, 67, 64, 65, 80, 68, 70, 71, 81, 72, 61, 88, 78, 79, 98, 83, 82, 87, 93, 69, 89, 66, 90, 94, 97, 99, 86, 77, 92, 100, 91, 19, 76, 74, 84, 95]);
% time elapsed: 7.16 s
----------
%%%mzn-stat: initTime=0.043286614
%%%mzn-stat: objective=328
%%%mzn-stat: nodes=99839
%%%mzn-stat: restarts=0
%%%mzn-stat: peakDepth=2326
%%%mzn-stat: solveTime=6.719293611
%%%mzn-stat: variables=3315
%%%mzn-stat: propagators=2810
%%%mzn-stat: failures=4757
%%%mzn-stat: propagations=568642
%%%mzn-stat: nogoods=4757
%%%mzn-stat: numAtomicConstraintsPropagated=0
%%%mzn-stat: allDifferentNumber1TotalHallSetSize=66184
%%%mzn-stat: allDifferentNumber1NumberOfConflicts=4480
%%%mzn-stat: allDifferentNumber1MaxHallSetSize=86
%%%mzn-stat: allDifferentNumber1PropagationsTotal=89973
%%%mzn-stat: allDifferentNumber1PropagationsThatFoundConflict=4480
%%%mzn-stat: circuitNumber2PropagationsThatFoundConflict=239
%%%mzn-stat: circuitNumber2TotalFixedEdgesAtConflict=20062
%%%mzn-stat: circuitNumber2NumberOfConflicts=239
%%%mzn-stat: circuitNumber2PropagationsThatPruned=1881
%%%mzn-stat: circuitNumber2PropagationsTotal=61749
%%%mzn-stat: AverageConflictSize=31.271389531217153
%%%mzn-stat: NumUnitNogoodsLearned=0
%%%mzn-stat: AverageLearnedNogoodLength=50.62896783687198
%%%mzn-stat: AverageBacktrackAmount=0
%%%mzn-stat: AverageLbd=31.433466470464577
%%%mzn-stat: 2AutonomousSearchNumBackupCalled=37997
%%%mzn-stat: 2AutonomousSearchNumPredicatesRemoved=0
%%%mzn-stat: 2AutonomousSearchNumCalls=38015
%%%mzn-stat: 2AutonomousSearchNumPredicatesAdded=10655
%%%mzn-stat: 2AutonomousSearchAverageSizeOfHeap=1.2562672629225307
%%%mzn-stat: 2AutonomousSearchNumAssignedPredicatesEncountered=47757
%%%mzn-stat-end
maxleg = 328;
succ = array1d(1..100,[3, 8, 6, 1, 4, 17, 13, 10, 5, 14, 12, 34, 27, 9, 2, 20, 18, 22, 7, 21, 25, 30, 15, 28, 23, 16, 32, 33, 31, 36, 37, 35, 29, 38, 43, 53, 39, 49, 40, 26, 42, 44, 96, 45, 47, 41, 55, 46, 50, 54, 24, 48, 57, 58, 75, 51, 52, 60, 56, 19, 73, 11, 64, 67, 62, 86, 66, 65, 63, 68, 70, 71, 80, 72, 61, 85, 78, 79, 98, 69, 82, 87, 93, 81, 97, 91, 90, 76, 83, 99, 95, 77, 92, 88, 100, 59, 89, 74, 94, 84]);
% time elapsed: 7.20 s
----------
%%%mzn-stat: initTime=0.043286614
%%%mzn-stat: objective=320
%%%mzn-stat: nodes=102109
%%%mzn-stat: restarts=0
%%%mzn-stat: peakDepth=2326
%%%mzn-stat: solveTime=6.749079952
%%%mzn-stat: variables=3315
%%%mzn-stat: propagators=2810
%%%mzn-stat: failures=4776
%%%mzn-stat: propagations=576809
%%%mzn-stat: nogoods=4776
%%%mzn-stat: numAtomicConstraintsPropagated=0
%%%mzn-stat: allDifferentNumber1TotalHallSetSize=66300
%%%mzn-stat: allDifferentNumber1NumberOfConflicts=4499
%%%mzn-stat: allDifferentNumber1MaxHallSetSize=86
%%%mzn-stat: allDifferentNumber1PropagationsTotal=90495
%%%mzn-stat: allDifferentNumber1PropagationsThatFoundConflict=4499
%%%mzn-stat: circuitNumber2PropagationsThatFoundConflict=239
%%%mzn-stat: circuitNumber2TotalFixedEdgesAtConflict=20062
%%%mzn-stat: circuitNumber2NumberOfConflicts=239
%%%mzn-stat: circuitNumber2PropagationsThatPruned=1909
%%%mzn-stat: circuitNumber2PropagationsTotal=62102
%%%mzn-stat: AverageConflictSize=31.195770519262982
%%%mzn-stat: NumUnitNogoodsLearned=0
%%%mzn-stat: AverageLearnedNogoodLength=50.47487437185929
%%%mzn-stat: AverageBacktrackAmount=0
%%%mzn-stat: AverageLbd=31.339195979899497
%%%mzn-stat: 2AutonomousSearchNumBackupCalled=39950
%%%mzn-stat: 2AutonomousSearchNumPredicatesRemoved=0
%%%mzn-stat: 2AutonomousSearchNumCalls=39969
%%%mzn-stat: 2AutonomousSearchNumPredicatesAdded=10777
%%%mzn-stat: 2AutonomousSearchAverageSizeOfHeap=1.2823187970677274
%%%mzn-stat: 2AutonomousSearchNumAssignedPredicatesEncountered=51253
%%%mzn-stat-end
maxleg = 320;
succ = array1d(1..100,[3, 8, 6, 1, 4, 17, 13, 10, 5, 14, 12, 34, 27, 9, 2, 20, 18, 22, 7, 21, 25, 30, 15, 28, 23, 16, 32, 33, 31, 36, 37, 35, 29, 38, 43, 53, 39, 49, 40, 26, 42, 44, 96, 45, 47, 41, 55, 46, 50, 54, 24, 48, 57, 58, 75, 51, 52, 60, 56, 19, 73, 11, 69, 67, 62, 86, 66, 65, 64, 68, 70, 71, 80, 72, 61, 63, 78, 79, 98, 76, 82, 87, 93, 81, 97, 91, 90, 85, 83, 99, 95, 77, 92, 88, 100, 59, 89, 74, 94, 84]);
% time elapsed: 7.24 s
----------
%%%mzn-stat: initTime=0.043286614
%%%mzn-stat: objective=317
%%%mzn-stat: nodes=104330
%%%mzn-stat: restarts=0
%%%mzn-stat: peakDepth=2326
%%%mzn-stat: solveTime=6.7738855749999995
%%%mzn-stat: variables=3315
%%%mzn-stat: propagators=2810
%%%mzn-stat: failures=4790
%%%mzn-stat: propagations=583920
%%%mzn-stat: nogoods=4790
%%%mzn-stat: numAtomicConstraintsPropagated=0
%%%mzn-stat: allDifferentNumber1TotalHallSetSize=66338
%%%mzn-stat: allDifferentNumber1NumberOfConflicts=4513
%%%mzn-stat: allDifferentNumber1MaxHallSetSize=86
%%%mzn-stat: allDifferentNumber1PropagationsTotal=90988
%%%mzn-stat: allDifferentNumber1PropagationsThatFoundConflict=4513
%%%mzn-stat: circuitNumber2PropagationsThatFoundConflict=239
%%%mzn-stat: circuitNumber2TotalFixedEdgesAtConflict=20062
%%%mzn-stat: circuitNumber2NumberOfConflicts=239
%%%mzn-stat: circuitNumber2PropagationsThatPruned=1939
%%%mzn-stat: circuitNumber2PropagationsTotal=62395
%%%mzn-stat: AverageConflictSize=31.115240083507306
%%%mzn-stat: NumUnitNogoodsLearned=0
%%%mzn-stat: AverageLearnedNogoodLength=50.33799582463465
%%%mzn-stat: AverageBacktrackAmount=0
%%%mzn-stat: AverageLbd=31.2580375782881
%%%mzn-stat: 2AutonomousSearchNumBackupCalled=41893
%%%mzn-stat: 2AutonomousSearchNumPredicatesRemoved=0
%%%mzn-stat: 2AutonomousSearchNumCalls=41913
%%%mzn-stat: 2AutonomousSearchNumPredicatesAdded=10819
%%%mzn-stat: 2AutonomousSearchAverageSizeOfHeap=1.3063011476152984
%%%mzn-stat: 2AutonomousSearchNumAssignedPredicatesEncountered=54751
%%%mzn-stat-end
maxleg = 317;
succ = array1d(1..100,[3, 8, 6, 1, 4, 17, 13, 10, 5, 14, 12, 34, 27, 9, 2, 20, 18, 22, 7, 21, 25, 30, 15, 28, 23, 16, 32, 33, 31, 36, 37, 35, 29, 38, 43, 53, 39, 49, 40, 26, 42, 44, 96, 45, 47, 41, 55, 46, 50, 54, 24, 48, 57, 58, 75, 51, 52, 60, 56, 70, 73, 11, 69, 67, 62, 86, 66, 65, 64, 71, 72, 74, 80, 79, 61, 63, 68, 83, 98, 76, 82, 87, 89, 81, 19, 91, 90, 94, 97, 99, 95, 77, 92, 84, 100, 59, 85, 78, 93, 88]);
% time elapsed: 7.27 s
----------
=====ERROR=====
% time elapsed: 1479.67 s
